Optimal - objective value 6004.56080664
      0 C0000000               1                      -0
      1 C0000001               0                      -0
      2 C0000002               0                      -0
      3 C0000003               0                      -0
      4 C0000004               0                      -0
      5 C0000005               1                      -0
      6 C0000006               1                      -0
      7 C0000007               0                      -0
      8 C0000008               0                      -0
      9 C0000009               0                      -0
      0 X0000000               0               6004.0836
      1 X0000001               0              0.47724685
      2 X0000002               0               6004.0836
      3 X0000003               0              0.47724685
      4 X0000004               1               6004.0836
      5 X0000005               1              0.47724685
